p cnf 89 311
4 -2 0
4 -3 0
2 3 -4 0
-6 5 0
-6 4 0
-5 -4 6 0
-4 6 -7 0
4 -6 -7 0
-4 -6 7 0
4 6 7 0
-8 1 0
-8 -7 0
-1 7 8 0
10 -2 0
10 -9 0
2 9 -10 0
-11 2 0
-11 10 0
-2 -10 11 0
-12 -8 0
-12 11 0
8 -11 12 0
-14 -13 0
-14 -3 0
13 3 14 0
13 -14 -15 0
-13 14 -15 0
13 14 15 0
-13 -14 15 0
16 -15 0
16 -9 0
15 9 -16 0
-18 -9 0
-18 17 0
9 -17 18 0
18 9 -19 0
-18 -9 -19 0
18 -9 19 0
-18 9 19 0
19 2 -20 0
-19 -2 -20 0
19 -2 20 0
-19 2 20 0
-16 -20 -21 0
16 20 -21 0
-16 20 21 0
16 -20 21 0
-12 -21 -22 0
12 21 -22 0
-12 21 22 0
12 -21 22 0
23 24 0
-23 24 0
-24 19 -25 0
24 -19 -25 0
-24 -19 25 0
24 19 25 0
-27 -26 0
-27 14 0
26 -14 27 0
25 -27 -28 0
-25 27 -28 0
25 27 28 0
-25 -27 28 0
13 17 -29 0
-13 -17 -29 0
13 -17 29 0
-13 17 29 0
7 -29 -30 0
-7 29 -30 0
7 29 30 0
-7 -29 30 0
32 -26 0
32 -31 0
26 31 -32 0
15 -32 -33 0
-15 32 -33 0
15 32 33 0
-15 -32 33 0
30 33 -34 0
-30 -33 -34 0
30 -33 34 0
-30 33 34 0
-28 34 -35 0
28 -34 -35 0
-28 -34 35 0
28 34 35 0
36 -22 0
36 35 0
22 -35 -36 0
-9 32 -37 0
9 -32 -37 0
-9 -32 37 0
9 32 37 0
38 -31 0
38 -13 0
31 13 -38 0
-40 -38 0
-40 -39 0
38 39 40 0
41 40 0
41 -14 0
-40 14 -41 0
-42 -37 0
-42 41 0
37 -41 42 0
-43 14 0
-43 -1 0
-14 1 43 0
-43 -3 -44 0
43 3 -44 0
-43 3 44 0
43 -3 44 0
-38 32 -45 0
38 -32 -45 0
-38 -32 45 0
38 32 45 0
44 45 -46 0
-44 -45 -46 0
44 -45 46 0
-44 45 46 0
-47 24 0
-47 40 0
-24 -40 47 0
-49 47 0
-49 48 0
-47 -48 49 0
46 -49 -50 0
-46 49 -50 0
46 49 50 0
-46 -49 50 0
-51 42 0
-51 -50 0
-42 50 51 0
52 -36 0
52 51 0
36 -51 -52 0
54 38 0
54 -53 0
-38 53 -54 0
-3 -54 -55 0
3 54 -55 0
-3 54 55 0
3 -54 55 0
55 17 -56 0
-55 -17 -56 0
55 -17 56 0
-55 17 56 0
-54 -8 -57 0
54 8 -57 0
-54 8 57 0
54 -8 57 0
-29 11 -58 0
29 -11 -58 0
-29 -11 58 0
29 11 58 0
59 -58 0
59 -40 0
58 40 -59 0
60 57 0
60 59 0
-57 -59 -60 0
-61 -15 0
-61 -24 0
15 24 61 0
-62 -39 0
-62 -2 0
39 2 62 0
63 15 0
63 -1 0
-15 1 -63 0
-64 -55 0
-64 63 0
55 -63 64 0
64 -15 -65 0
-64 15 -65 0
64 15 65 0
-64 -15 65 0
66 62 0
66 65 0
-62 -65 -66 0
67 17 0
67 -31 0
-17 31 -67 0
-2 67 -68 0
2 -67 -68 0
-2 -67 68 0
2 67 68 0
69 23 0
69 33 0
-23 -33 -69 0
70 68 0
70 69 0
-68 -69 -70 0
-2 -26 -71 0
2 26 -71 0
-2 26 71 0
2 -26 71 0
72 -70 0
72 71 0
70 -71 -72 0
66 -72 -73 0
-66 72 -73 0
66 72 73 0
-66 -72 73 0
75 -44 0
75 -74 0
44 74 -75 0
73 75 -76 0
-73 -75 -76 0
73 -75 76 0
-73 75 76 0
61 -76 -77 0
-61 76 -77 0
61 76 77 0
-61 -76 77 0
-78 60 0
-78 -77 0
-60 77 78 0
79 56 0
79 78 0
-56 -78 -79 0
-80 52 0
-80 79 0
-52 -79 80 0
81 24 0
81 24 0
-24 -81 0
17 2 -82 0
-17 -2 -82 0
17 -2 82 0
-17 2 82 0
-81 82 -83 0
81 -82 -83 0
-81 -82 83 0
81 82 83 0
-24 -2 -84 0
24 2 -84 0
-24 2 84 0
24 -2 84 0
85 -84 0
85 14 0
84 -14 -85 0
55 15 -86 0
-55 -15 -86 0
55 -15 86 0
-55 15 86 0
85 -86 -87 0
-85 86 -87 0
85 86 87 0
-85 -86 87 0
83 87 -88 0
-83 -87 -88 0
83 -87 88 0
-83 87 88 0
-89 -80 0
-89 88 0
80 -88 89 0
-72 -20 73 26 6 80 0
30 -69 -50 -64 0
76 14 -22 0
75 81 -15 77 71 0
67 19 -55 10 0
18 -58 0
-65 24 0
77 -55 -71 -24 -75 0
52 48 72 -85 -76 0
-14 -27 0
-32 -13 0
5 -30 74 66 -10 -50 0
20 42 -83 75 73 66 0
27 -7 21 46 0
-50 82 79 -37 77 0
-5 -88 7 0
-4 54 -77 66 40 0
42 -9 -46 5 -78 -8 0
-71 40 0
2 47 59 0
29 -30 42 0
43 -41 -19 53 74 0
11 -78 34 10 0
8 32 0
45 6 35 0
74 51 70 -7 -24 -13 0
25 77 0
-86 12 -10 69 -58 0
4 -73 -57 50 36 76 0
42 37 -73 -68 -15 0
6 68 -42 -31 0
80 -88 -37 0
17 29 42 -64 0
76 87 -36 0
30 59 -69 89 39 26 0
41 26 -64 -16 -13 -33 0
-65 47 79 63 52 0
9 16 4 0
-17 85 1 -51 -53 0
57 18 -9 -61 -16 0
15 -72 0
-45 75 -51 -38 63 -77 0
27 -43 89 24 81 -61 0
-34 -74 30 -28 8 -52 0
-8 -26 -67 0
-11 -37 3 -7 0
-10 65 -76 43 0
71 67 62 -12 28 -48 0
19 49 81 -86 13 0
82 -46 0
41 -67 -62 70 69 0
53 13 -46 22 0
89 0
